code/jssp.sol
Optimal (within gap tolerance) - objective value 55 - solution time 0
0 x(1,i,0,3,0) 1 0
2 x(1,3,0,3,1) 1 0
4 x(1,3,1,3,2) 1 0
6 x(1,3,2,3,3) 1 0
8 x(1,3,3,3,4) 1 0
10 x(1,3,4,3,5) 1 0
11 x(1,3,5,1,6) 1 0
78 x(1,1,6,2,9) 1 0
146 x(1,2,9,2,10) 1 0
148 x(1,2,10,2,11) 1 0
150 x(1,2,11,2,12) 1 0
152 x(1,2,12,2,13) 1 0
154 x(1,2,13,2,14) 1 0
156 x(1,2,14,2,15) 1 0
158 x(1,2,15,2,16) 1 0
160 x(1,2,16,2,17) 1 0
162 x(1,2,17,2,18) 1 0
164 x(1,2,18,2,19) 1 0
166 x(1,2,19,2,20) 1 0
168 x(1,2,20,2,21) 1 0
170 x(1,2,21,2,22) 1 0
172 x(1,2,22,2,23) 1 0
174 x(1,2,23,2,24) 1 0
176 x(1,2,24,2,25) 1 0
177 x(1,2,25,4,31) 1 0
244 x(1,4,31,6,38) 1 0
311 x(1,6,38,5,41) 1 0
379 x(1,5,41,5,42) 1 0
380 x(1,5,42,f,48) 1 0
404 x(2,i,0,2,0) 1 0
405 x(2,2,0,3,8) 1 0
430 x(2,3,8,5,13) 1 0
456 x(2,5,13,5,14) 1 0
458 x(2,5,14,5,15) 1 0
459 x(2,5,15,6,25) 1 0
485 x(2,6,25,6,26) 1 0
487 x(2,6,26,6,27) 1 0
489 x(2,6,27,6,28) 1 0
490 x(2,6,28,1,38) 1 0
515 x(2,1,38,4,48) 1 0
540 x(2,4,48,f,52) 1 0
556 x(3,i,0,3,0) 1 0
557 x(3,3,0,4,5) 1 0
609 x(3,4,5,4,6) 1 0
611 x(3,4,6,4,7) 1 0
612 x(3,4,7,6,11) 1 0
663 x(3,6,11,1,19) 1 0
714 x(3,1,19,2,28) 1 0
766 x(3,2,28,2,29) 1 0
768 x(3,2,29,2,30) 1 0
770 x(3,2,30,2,31) 1 0
771 x(3,2,31,5,32) 1 0
823 x(3,5,32,5,33) 1 0
825 x(3,5,33,5,34) 1 0
827 x(3,5,34,5,35) 1 0
829 x(3,5,35,5,36) 1 0
831 x(3,5,36,5,37) 1 0
833 x(3,5,37,5,38) 1 0
835 x(3,5,38,5,39) 1 0
837 x(3,5,39,5,40) 1 0
839 x(3,5,40,5,41) 1 0
841 x(3,5,41,5,42) 1 0
843 x(3,5,42,5,43) 1 0
845 x(3,5,43,5,44) 1 0
847 x(3,5,44,5,45) 1 0
849 x(3,5,45,5,46) 1 0
851 x(3,5,46,5,47) 1 0
853 x(3,5,47,5,48) 1 0
854 x(3,5,48,f,55) 1 0
864 x(4,i,0,2,0) 1 0
866 x(4,2,0,2,1) 1 0
868 x(4,2,1,2,2) 1 0
870 x(4,2,2,2,3) 1 0
872 x(4,2,3,2,4) 1 0
874 x(4,2,4,2,5) 1 0
876 x(4,2,5,2,6) 1 0
878 x(4,2,6,2,7) 1 0
880 x(4,2,7,2,8) 1 0
881 x(4,2,8,1,13) 1 0
930 x(4,1,13,3,18) 1 0
980 x(4,3,18,3,19) 1 0
982 x(4,3,19,3,20) 1 0
984 x(4,3,20,3,21) 1 0
986 x(4,3,21,3,22) 1 0
987 x(4,3,22,4,27) 1 0
1036 x(4,4,27,5,30) 1 0
1085 x(4,5,30,6,38) 1 0
1135 x(4,6,38,6,39) 1 0
1137 x(4,6,39,6,40) 1 0
1139 x(4,6,40,6,41) 1 0
1141 x(4,6,41,6,42) 1 0
1143 x(4,6,42,6,43) 1 0
1145 x(4,6,43,6,44) 1 0
1147 x(4,6,44,6,45) 1 0
1149 x(4,6,45,6,46) 1 0
1150 x(4,6,46,f,55) 1 0
1160 x(5,i,0,3,0) 1 0
1162 x(5,3,0,3,1) 1 0
1164 x(5,3,1,3,2) 1 0
1166 x(5,3,2,3,3) 1 0
1168 x(5,3,3,3,4) 1 0
1170 x(5,3,4,3,5) 1 0
1172 x(5,3,5,3,6) 1 0
1174 x(5,3,6,3,7) 1 0
1176 x(5,3,7,3,8) 1 0
1178 x(5,3,8,3,9) 1 0
1180 x(5,3,9,3,10) 1 0
1182 x(5,3,10,3,11) 1 0
1184 x(5,3,11,3,12) 1 0
1186 x(5,3,12,3,13) 1 0
1187 x(5,3,13,2,22) 1 0
1256 x(5,2,22,5,25) 1 0
1325 x(5,5,25,6,30) 1 0
1395 x(5,6,30,6,31) 1 0
1397 x(5,6,31,6,32) 1 0
1399 x(5,6,32,6,33) 1 0
1401 x(5,6,33,6,34) 1 0
1403 x(5,6,34,6,35) 1 0
1405 x(5,6,35,6,36) 1 0
1407 x(5,6,36,6,37) 1 0
1409 x(5,6,37,6,38) 1 0
1411 x(5,6,38,6,39) 1 0
1413 x(5,6,39,6,40) 1 0
1415 x(5,6,40,6,41) 1 0
1416 x(5,6,41,1,45) 1 0
1486 x(5,1,45,1,46) 1 0
1488 x(5,1,46,1,47) 1 0
1490 x(5,1,47,1,48) 1 0
1491 x(5,1,48,4,51) 1 0
1561 x(5,4,51,4,52) 1 0
1562 x(5,4,52,f,53) 1 0
1576 x(6,i,0,2,0) 1 0
1578 x(6,2,0,2,1) 1 0
1580 x(6,2,1,2,2) 1 0
1582 x(6,2,2,2,3) 1 0
1584 x(6,2,3,2,4) 1 0
1586 x(6,2,4,2,5) 1 0
1588 x(6,2,5,2,6) 1 0
1590 x(6,2,6,2,7) 1 0
1592 x(6,2,7,2,8) 1 0
1594 x(6,2,8,2,9) 1 0
1596 x(6,2,9,2,10) 1 0
1598 x(6,2,10,2,11) 1 0
1600 x(6,2,11,2,12) 1 0
1602 x(6,2,12,2,13) 1 0
1603 x(6,2,13,4,16) 1 0
1662 x(6,4,16,6,19) 1 0
1721 x(6,6,19,1,28) 1 0
1780 x(6,1,28,5,38) 1 0
1839 x(6,5,38,3,42) 1 0
1899 x(6,3,42,3,43) 1 0
1901 x(6,3,43,3,44) 1 0
1903 x(6,3,44,3,45) 1 0
1905 x(6,3,45,3,46) 1 0
1907 x(6,3,46,3,47) 1 0
1909 x(6,3,47,3,48) 1 0
1911 x(6,3,48,3,49) 1 0
1913 x(6,3,49,3,50) 1 0
1915 x(6,3,50,3,51) 1 0
1917 x(6,3,51,3,52) 1 0
1919 x(6,3,52,3,53) 1 0
1921 x(6,3,53,3,54) 1 0
1922 x(6,3,54,f,55) 1 0
1932 C 55 1
